knapPI_6_1000_1000_91
n 1000
c 77249
z 77249
time 0.3
1,593,593,1
2,416,416,1
3,132,132,1
4,583,583,1
5,775,775,1
6,243,243,1
7,218,218,1
8,375,375,1
9,602,602,1
10,122,122,1
11,138,138,1
12,897,897,1
13,112,112,1
14,890,890,1
15,178,178,1
16,381,381,1
17,662,662,1
18,92,92,1
19,225,225,1
20,946,946,1
21,71,71,1
22,624,624,1
23,787,787,1
24,555,555,1
25,628,628,1
26,967,967,1
27,530,530,1
28,909,909,1
29,677,677,1
30,803,803,1
31,452,452,1
32,792,792,1
33,161,161,1
34,2,2,1
35,259,259,1
36,423,423,1
37,712,712,1
38,714,714,1
39,343,343,1
40,295,295,1
41,274,274,1
42,227,227,1
43,764,764,1
44,831,831,1
45,365,365,1
46,592,592,1
47,981,981,1
48,401,401,1
49,674,674,1
50,148,148,1
51,347,347,1
52,922,922,1
53,982,982,1
54,702,702,1
55,443,443,1
56,705,705,1
57,967,967,1
58,698,698,1
59,698,698,1
60,170,170,1
61,29,29,1
62,379,379,1
63,298,298,1
64,713,713,1
65,133,133,1
66,118,118,1
67,934,934,1
68,730,730,1
69,308,308,1
70,69,69,1
71,847,847,1
72,618,618,1
73,585,585,1
74,983,983,1
75,416,416,1
76,946,946,1
77,696,696,1
78,796,796,1
79,151,151,1
80,283,283,1
81,111,111,1
82,573,573,1
83,684,684,1
84,340,340,1
85,745,745,1
86,530,530,1
87,219,219,1
88,120,120,1
89,748,748,1
90,270,270,1
91,64,64,1
92,594,594,1
93,550,550,1
94,124,124,1
95,829,829,1
96,446,446,1
97,356,356,1
98,499,499,1
99,348,348,1
100,534,534,1
101,317,317,1
102,992,992,1
103,120,120,1
104,979,979,1
105,631,631,1
106,439,439,1
107,797,797,1
108,1000,1000,1
109,87,87,1
110,993,993,1
111,313,313,1
112,196,196,1
113,530,530,1
114,402,402,1
115,749,749,1
116,906,906,1
117,382,382,1
118,472,472,1
119,407,407,1
120,362,362,1
121,133,133,1
122,982,982,1
123,197,197,1
124,645,645,1
125,683,683,1
126,124,124,1
127,961,961,1
128,125,125,1
129,259,259,1
130,822,822,1
131,982,982,1
132,868,868,1
133,690,690,1
134,468,468,1
135,782,782,1
136,420,420,1
137,852,852,1
138,989,989,1
139,978,978,1
140,216,216,1
141,884,884,1
142,416,416,1
143,985,985,1
144,787,787,1
145,216,216,1
146,476,476,1
147,39,39,1
148,997,997,1
149,892,892,1
150,18,18,1
151,649,649,1
152,437,437,1
153,135,135,1
154,74,74,1
155,318,318,1
156,755,755,1
157,5,5,1
158,812,812,1
159,361,361,1
160,651,651,1
161,537,537,1
162,441,441,1
163,496,496,1
164,788,788,1
165,205,205,1
166,909,909,1
167,729,729,1
168,613,613,1
169,919,919,1
170,40,40,1
171,142,142,1
172,599,599,1
173,525,525,1
174,361,361,1
175,982,982,1
176,864,864,1
177,711,711,1
178,150,150,1
179,869,869,1
180,235,235,1
181,121,121,1
182,474,474,1
183,994,994,1
184,609,609,1
185,932,932,1
186,927,927,1
187,557,557,1
188,880,880,1
189,709,709,1
190,126,126,1
191,296,296,1
192,597,597,1
193,878,878,1
194,670,670,1
195,667,667,1
196,80,80,1
197,145,145,1
198,161,161,1
199,65,65,1
200,535,535,1
201,263,263,1
202,632,632,1
203,833,833,1
204,141,141,1
205,47,47,1
206,856,856,1
207,250,250,1
208,627,627,1
209,578,578,1
210,137,137,1
211,955,955,1
212,826,826,1
213,717,717,1
214,267,267,1
215,999,999,1
216,590,590,1
217,513,513,1
218,423,423,1
219,142,142,1
220,147,147,1
221,677,677,1
222,97,97,1
223,246,246,1
224,44,44,1
225,420,420,1
226,498,498,1
227,461,461,1
228,97,97,1
229,481,481,1
230,590,590,1
231,353,353,1
232,450,450,1
233,435,435,1
234,243,243,1
235,834,834,1
236,949,949,1
237,506,506,1
238,120,120,1
239,941,941,1
240,621,621,1
241,565,565,1
242,331,331,1
243,665,665,1
244,158,158,1
245,162,162,1
246,954,954,1
247,683,683,1
248,945,945,1
249,863,863,1
250,950,950,1
251,459,459,1
252,467,467,1
253,561,561,1
254,591,591,1
255,465,465,1
256,583,583,1
257,159,159,1
258,457,457,1
259,676,676,1
260,297,297,1
261,792,792,1
262,64,64,1
263,970,970,1
264,86,86,1
265,128,128,1
266,334,334,1
267,758,758,1
268,832,832,1
269,938,938,1
270,579,579,1
271,196,196,1
272,5,5,1
273,468,468,1
274,405,405,1
275,565,565,1
276,180,180,1
277,71,71,1
278,616,616,1
279,465,465,1
280,584,584,1
281,14,14,1
282,548,548,1
283,603,603,1
284,809,809,1
285,982,982,1
286,796,796,1
287,1,1,1
288,234,234,1
289,159,159,1
290,787,787,1
291,330,330,1
292,918,918,1
293,191,191,1
294,871,871,1
295,498,498,1
296,663,663,1
297,186,186,1
298,300,300,1
299,339,339,1
300,430,430,1
301,538,538,1
302,982,982,1
303,652,652,1
304,115,115,1
305,372,372,1
306,62,62,1
307,639,639,1
308,872,872,1
309,16,16,1
310,885,885,1
311,751,751,1
312,397,397,1
313,943,943,1
314,815,815,1
315,339,339,1
316,873,873,1
317,772,772,1
318,540,540,1
319,843,843,1
320,323,323,1
321,922,922,1
322,833,833,1
323,690,690,1
324,129,129,1
325,253,253,1
326,928,928,1
327,507,507,1
328,574,574,1
329,733,733,1
330,829,829,1
331,298,298,1
332,84,84,1
333,58,58,1
334,884,884,1
335,939,939,1
336,120,120,1
337,508,508,1
338,132,132,1
339,485,485,1
340,32,32,1
341,261,261,1
342,259,259,1
343,337,337,1
344,223,223,1
345,860,860,1
346,10,10,1
347,514,514,1
348,444,444,1
349,377,377,1
350,91,91,1
351,814,814,1
352,44,44,1
353,101,101,1
354,173,173,1
355,451,451,1
356,730,730,1
357,159,159,1
358,992,992,1
359,695,695,1
360,468,468,1
361,701,701,1
362,905,905,1
363,396,396,1
364,738,738,1
365,746,746,1
366,289,289,1
367,148,148,1
368,998,998,1
369,828,828,1
370,645,645,1
371,501,501,1
372,535,535,1
373,126,126,1
374,885,885,1
375,685,685,1
376,465,465,1
377,830,830,1
378,874,874,1
379,53,53,1
380,701,701,1
381,237,237,1
382,697,697,1
383,487,487,1
384,268,268,1
385,681,681,1
386,744,744,1
387,968,968,1
388,317,317,1
389,150,150,1
390,448,448,1
391,302,302,1
392,608,608,1
393,429,429,1
394,744,744,1
395,410,410,1
396,889,889,1
397,368,368,1
398,894,894,1
399,427,427,1
400,118,118,1
401,625,625,1
402,853,853,1
403,751,751,1
404,70,70,1
405,467,467,1
406,99,99,1
407,133,133,1
408,313,313,1
409,928,928,1
410,404,404,1
411,85,85,1
412,246,246,1
413,129,129,1
414,85,85,1
415,250,250,1
416,168,168,1
417,920,920,1
418,519,519,1
419,495,495,1
420,922,922,1
421,287,287,1
422,856,856,1
423,35,35,1
424,196,196,1
425,247,247,1
426,911,911,1
427,338,338,1
428,827,827,1
429,257,257,1
430,423,423,1
431,686,686,1
432,609,609,1
433,396,396,1
434,84,84,1
435,520,520,1
436,655,655,1
437,133,133,1
438,271,271,1
439,516,516,1
440,201,201,1
441,85,85,1
442,273,273,1
443,391,391,1
444,803,803,1
445,587,587,1
446,506,506,1
447,633,633,1
448,816,816,1
449,441,441,1
450,320,320,1
451,324,324,1
452,117,117,1
453,540,540,1
454,932,932,1
455,132,132,1
456,525,525,1
457,508,508,1
458,207,207,1
459,673,673,1
460,462,462,1
461,599,599,1
462,343,343,1
463,420,420,1
464,683,683,1
465,175,175,1
466,118,118,1
467,191,191,1
468,705,705,1
469,48,48,1
470,230,230,1
471,308,308,1
472,291,291,1
473,43,43,1
474,889,889,1
475,274,274,1
476,873,873,1
477,272,272,1
478,706,706,1
479,372,372,1
480,571,571,1
481,254,254,1
482,203,203,1
483,284,284,1
484,664,664,1
485,592,592,1
486,562,562,1
487,375,375,1
488,459,459,1
489,403,403,1
490,550,550,1
491,665,665,1
492,515,515,1
493,436,436,1
494,722,722,1
495,863,863,1
496,283,283,1
497,300,300,1
498,521,521,1
499,622,622,1
500,493,493,1
501,123,123,1
502,865,865,1
503,604,604,1
504,791,791,1
505,624,624,1
506,533,533,1
507,383,383,1
508,936,936,1
509,642,642,1
510,346,346,1
511,227,227,1
512,564,564,1
513,988,988,1
514,152,152,1
515,227,227,1
516,203,203,1
517,813,813,1
518,127,127,1
519,544,544,1
520,971,971,1
521,807,807,1
522,2,2,1
523,395,395,1
524,593,593,1
525,482,482,1
526,328,328,1
527,531,531,1
528,533,533,1
529,978,978,1
530,808,808,1
531,636,636,1
532,241,241,1
533,714,714,1
534,846,846,1
535,253,253,1
536,989,989,1
537,197,197,1
538,132,132,1
539,248,248,1
540,305,305,1
541,625,625,1
542,626,626,1
543,778,778,1
544,990,990,1
545,781,781,1
546,89,89,1
547,392,392,1
548,119,119,1
549,670,670,1
550,481,481,1
551,155,155,1
552,680,680,1
553,634,634,1
554,486,486,1
555,945,945,1
556,421,421,1
557,510,510,1
558,219,219,1
559,97,97,1
560,563,563,1
561,269,269,1
562,404,404,1
563,433,433,1
564,797,797,1
565,530,530,1
566,876,876,1
567,279,279,1
568,8,8,1
569,1000,1000,1
570,825,825,1
571,759,759,1
572,164,164,1
573,738,738,1
574,374,374,1
575,107,107,1
576,625,625,1
577,700,700,1
578,313,313,1
579,221,221,1
580,330,330,1
581,936,936,1
582,368,368,1
583,82,82,1
584,505,505,1
585,897,897,1
586,44,44,1
587,201,201,1
588,869,869,1
589,953,953,1
590,596,596,1
591,445,445,1
592,398,398,1
593,120,120,1
594,501,501,1
595,317,317,1
596,215,215,1
597,546,546,1
598,129,129,1
599,779,779,1
600,514,514,1
601,736,736,1
602,682,682,1
603,561,561,1
604,852,852,1
605,79,79,1
606,4,4,1
607,349,349,1
608,997,997,1
609,338,338,1
610,222,222,1
611,307,307,1
612,284,284,1
613,706,706,1
614,880,880,1
615,736,736,1
616,652,652,1
617,387,387,1
618,810,810,1
619,79,79,1
620,734,734,1
621,387,387,1
622,501,501,1
623,353,353,1
624,481,481,1
625,218,218,1
626,606,606,1
627,604,604,1
628,382,382,1
629,16,16,1
630,252,252,1
631,973,973,1
632,635,635,1
633,180,180,1
634,413,413,1
635,944,944,1
636,892,892,1
637,752,752,1
638,20,20,1
639,119,119,1
640,749,749,1
641,486,486,1
642,861,861,1
643,530,530,1
644,853,853,1
645,39,39,1
646,267,267,1
647,164,164,1
648,561,561,1
649,488,488,1
650,248,248,1
651,385,385,1
652,429,429,1
653,886,886,1
654,416,416,1
655,228,228,1
656,840,840,1
657,280,280,1
658,27,27,1
659,753,753,1
660,255,255,1
661,697,697,1
662,315,315,1
663,846,846,1
664,810,810,1
665,343,343,1
666,441,441,1
667,675,675,1
668,287,287,1
669,587,587,1
670,579,579,1
671,662,662,1
672,526,526,1
673,327,327,1
674,313,313,1
675,188,188,1
676,657,657,1
677,654,654,1
678,379,379,1
679,387,387,1
680,615,615,1
681,947,947,1
682,260,260,1
683,490,490,1
684,264,264,1
685,580,580,1
686,376,376,1
687,21,21,1
688,77,77,1
689,214,214,1
690,812,812,1
691,674,674,1
692,289,289,1
693,172,172,1
694,729,729,1
695,540,540,1
696,15,15,1
697,329,329,1
698,888,888,1
699,102,102,1
700,340,340,1
701,578,578,1
702,116,116,1
703,915,915,1
704,36,36,1
705,79,79,1
706,584,584,1
707,330,330,1
708,2,2,1
709,127,127,1
710,39,39,1
711,258,258,1
712,219,219,1
713,160,160,1
714,403,403,1
715,558,558,1
716,186,186,1
717,92,92,1
718,415,415,1
719,296,296,1
720,142,142,1
721,201,201,1
722,290,290,1
723,557,557,1
724,262,262,1
725,552,552,1
726,609,609,1
727,657,657,1
728,259,259,1
729,474,474,1
730,547,547,1
731,458,458,1
732,931,931,1
733,63,63,1
734,613,613,1
735,921,921,1
736,937,937,1
737,900,900,1
738,608,608,1
739,340,340,1
740,681,681,1
741,686,686,1
742,384,384,1
743,497,497,1
744,467,467,1
745,804,804,1
746,873,873,1
747,464,464,1
748,462,462,1
749,50,50,1
750,694,694,1
751,410,410,1
752,347,347,1
753,23,23,1
754,402,402,1
755,162,162,1
756,429,429,1
757,655,655,1
758,634,634,1
759,966,966,1
760,24,24,1
761,801,801,1
762,930,930,1
763,1,1,1
764,105,105,1
765,906,906,1
766,872,872,1
767,23,23,1
768,483,483,1
769,170,170,1
770,941,941,1
771,295,295,1
772,229,229,1
773,398,398,1
774,679,679,1
775,948,948,1
776,746,746,1
777,403,403,1
778,266,266,1
779,155,155,1
780,687,687,1
781,464,464,1
782,433,433,1
783,113,113,1
784,505,505,1
785,711,711,1
786,366,366,1
787,623,623,1
788,473,473,1
789,59,59,1
790,593,593,1
791,770,770,1
792,496,496,1
793,914,914,1
794,574,574,1
795,423,423,1
796,8,8,1
797,307,307,1
798,86,86,1
799,368,368,1
800,141,141,1
801,575,575,1
802,735,735,1
803,546,546,1
804,342,342,1
805,551,551,1
806,53,53,1
807,138,138,1
808,252,252,1
809,921,921,1
810,891,891,1
811,973,973,1
812,138,138,1
813,722,722,1
814,898,898,1
815,593,593,1
816,92,92,1
817,195,195,1
818,614,614,1
819,391,391,1
820,211,211,1
821,583,583,1
822,888,888,1
823,332,332,1
824,2,2,1
825,895,895,1
826,660,660,1
827,641,641,1
828,315,315,1
829,436,436,1
830,267,267,1
831,98,98,1
832,966,966,1
833,81,81,1
834,206,206,1
835,986,986,1
836,594,594,1
837,398,398,1
838,217,217,1
839,388,388,1
840,461,461,1
841,983,983,1
842,737,737,1
843,987,987,1
844,963,963,1
845,411,411,1
846,755,755,1
847,841,841,1
848,982,982,1
849,110,110,1
850,656,656,1
851,774,774,1
852,781,781,1
853,519,519,1
854,560,560,1
855,33,33,1
856,677,677,1
857,24,24,1
858,228,228,1
859,130,130,1
860,23,23,1
861,181,181,1
862,267,267,1
863,452,452,1
864,645,645,1
865,742,742,1
866,958,958,1
867,38,38,1
868,826,826,1
869,673,673,1
870,479,479,1
871,636,636,1
872,318,318,1
873,439,439,1
874,557,557,1
875,409,409,1
876,905,905,1
877,562,562,1
878,448,448,1
879,588,588,1
880,432,432,1
881,724,724,1
882,172,172,1
883,660,660,1
884,271,271,1
885,243,243,1
886,365,365,1
887,321,321,1
888,44,44,1
889,417,417,1
890,495,495,1
891,954,954,1
892,431,431,1
893,771,771,1
894,640,640,1
895,60,60,1
896,539,539,1
897,460,460,1
898,460,460,1
899,897,897,1
900,824,824,1
901,458,458,1
902,484,484,1
903,832,832,1
904,127,127,1
905,202,202,1
906,740,740,1
907,871,871,1
908,874,874,1
909,749,749,1
910,804,804,1
911,861,861,1
912,196,196,1
913,375,375,1
914,614,614,1
915,483,483,1
916,463,463,1
917,99,99,1
918,582,582,1
919,602,602,1
920,813,813,1
921,637,637,1
922,211,211,1
923,582,582,1
924,102,102,1
925,198,198,1
926,667,667,1
927,34,34,1
928,862,862,1
929,446,446,1
930,401,401,1
931,4,4,1
932,316,316,1
933,637,637,1
934,409,409,1
935,240,240,1
936,416,416,1
937,943,943,1
938,107,107,1
939,860,860,1
940,974,974,1
941,239,239,1
942,279,279,1
943,933,933,1
944,410,410,1
945,564,564,1
946,959,959,1
947,8,8,1
948,942,942,1
949,780,780,1
950,704,704,1
951,102,102,1
952,650,650,1
953,42,42,1
954,824,824,1
955,273,273,1
956,980,980,1
957,819,819,1
958,687,687,1
959,309,309,1
960,61,61,1
961,948,948,1
962,16,16,1
963,24,24,1
964,399,399,1
965,531,531,1
966,726,726,1
967,82,82,1
968,78,78,1
969,34,34,1
970,672,672,1
971,542,542,1
972,789,789,1
973,352,352,1
974,917,917,1
975,850,850,1
976,964,964,1
977,832,832,1
978,78,78,1
979,589,589,1
980,269,269,1
981,584,584,1
982,998,998,1
983,229,229,1
984,790,790,1
985,455,455,1
986,270,270,1
987,473,473,1
988,263,263,1
989,763,763,1
990,264,264,1
991,665,665,1
992,42,42,1
993,128,128,1
994,975,975,1
995,988,988,1
996,839,839,1
997,395,395,1
998,996,996,1
999,252,252,1
1000,658,658,1
